1 1 -2 0
1 -1 -3 0
1 -1 4 0
1 -1 5 0
1 -2 6 0
1 -2 3 0
1 2 -7 0
1 2 1 0
1 2 -4 0
1 8 9 0
1 8 -10 0
1 8 -11 0
1 -8 3 0
1 -8 -7 0
1 8 12 0
1 8 13 0
1 11 9 0
1 -11 -10 0
1 11 14 0
1 11 -12 0
1 -11 -8 0
1 -11 13 0
1 7 -15 0
1 7 -11 0
1 7 -2 0
1 7 16 0
1 -7 17 0
1 -7 18 0
1 -13 -19 0
1 -13 15 0
1 -13 20 0
1 13 -2 0
1 -13 17 0
1 13 -18 0
1 -13 -8 0
1 13 1 0
1 -3 -21 0
1 3 -22 0
1 -3 -11 0
1 3 23 0
1 -3 -24 0
1 -3 -25 0
1 -3 8 0
1 3 -1 0
1 4 21 0
1 4 -26 0
1 4 -11 0
1 -4 2 0
1 4 3 0
1 4 8 0
1 4 -27 0
1 18 -9 0
1 -18 -7 0
1 18 -12 0
1 18 25 0
1 18 13 0
1 -20 9 0
1 20 10 0
1 -20 -14 0
1 -20 12 0
1 17 -10 0
1 -17 -15 0
1 -17 -28 0
1 17 14 0
1 -17 12 0
1 -17 29 0
1 -15 9 0
1 15 10 0
1 15 -26 0
1 -15 -12 0
1 -15 -29 0
1 -15 -30 0
1 15 -13 0
1 12 31 0
1 12 32 0
1 -12 10 0
1 -12 15 0
1 -12 -20 0
1 12 33 0
1 -12 -34 0
1 12 18 0
1 -12 8 0
1 -12 35 0
1 -10 -32 0
1 -10 36 0
1 -10 -33 0
1 10 37 0
1 -10 12 0
1 10 -17 0
1 10 -18 0
1 -10 -8 0
1 10 -35 0
1 -14 -38 0
1 -14 -20 0
1 -14 11 0
1 -14 33 0
1 14 -39 0
1 -14 -40 0
1 14 23 0
1 14 17 0
1 -14 18 0
1 14 -8 0
1 -9 -38 0
1 9 -15 0
1 -9 20 0
1 -9 11 0
1 9 -33 0
1 9 39 0
1 -9 -23 0
1 -9 17 0
1 -9 -18 0
1 9 -8 0
1 -9 -35 0
1 -37 -10 0
1 -37 -28 0
1 -37 41 0
1 -37 -12 0
1 37 23 0
1 37 -29 0
1 -37 -30 0
1 32 -28 0
1 -32 41 0
1 32 37 0
1 32 -12 0
1 32 29 0
1 -32 30 0
1 42 -31 0
1 42 -10 0
1 42 -28 0
1 -42 -41 0
1 42 12 0
1 -42 -30 0
1 -31 -10 0
1 31 28 0
1 -31 -41 0
1 -31 12 0
1 -30 31 0
1 -30 -15 0
1 30 -41 0
1 30 43 0
1 30 -42 0
1 -30 37 0
1 30 17 0
1 -30 -44 0
1 -41 15 0
1 -41 -43 0
1 41 -37 0
1 -41 30 0
1 41 -44 0
1 -29 -31 0
1 29 -32 0
1 29 -15 0
1 -29 28 0
1 29 -45 0
1 29 33 0
1 29 37 0
1 29 44 0
1 29 46 0
1 -29 -35 0
1 28 31 0
1 -28 15 0
1 -28 -47 0
1 -28 -17 0
1 -28 35 0
1 5 48 0
1 5 -49 0
1 -5 -50 0
1 -5 51 0
1 -6 -48 0
1 -6 -52 0
1 6 2 0
1 -6 53 0
1 6 49 0
1 -54 -48 0
1 -54 55 0
1 -54 -49 0
1 54 50 0
1 -54 8 0
1 -54 -56 0
1 57 52 0
1 57 58 0
1 57 11 0
1 -57 49 0
1 -57 50 0
1 -57 59 0
1 -57 60 0
1 57 -54 0
1 52 -61 0
1 -52 62 0
1 52 -22 0
1 52 -57 0
1 52 -63 0
1 52 -5 0
1 -50 -52 0
1 -50 -26 0
1 -50 64 0
1 -50 -24 0
1 -50 54 0
1 50 5 0
1 48 65 0
1 -48 66 0
1 48 -67 0
1 -48 -63 0
1 -48 -68 0
1 48 69 0
1 48 54 0
1 49 -48 0
1 -49 66 0
1 49 57 0
1 -49 -6 0
1 -49 -70 0
1 49 -63 0
1 49 -68 0
1 49 -69 0
1 49 5 0
1 25 52 0
1 -25 -22 0
1 -25 58 0
1 -25 50 0
1 25 60 0
1 25 -18 0
1 -25 69 0
1 -25 4 0
1 -22 -52 0
1 22 55 0
1 22 -20 0
1 22 -58 0
1 -22 67 0
1 -22 50 0
1 -22 -60 0
1 22 -4 0
1 -24 -52 0
1 -24 26 0
1 24 71 0
1 -24 -17 0
1 24 -60 0
1 -24 68 0
1 24 4 0
1 -26 -60 0
1 -26 52 0
1 -26 15 0
1 -26 -55 0
1 26 -66 0
1 26 -71 0
1 -26 50 0
1 26 -72 0
1 26 -73 0
1 -26 4 0
1 -58 -74 0
1 58 60 0
1 -58 -26 0
1 58 75 0
1 -58 -23 0
1 58 25 0
1 -58 -54 0
1 -60 74 0
1 60 21 0
1 -60 -26 0
1 -60 -58 0
1 60 -57 0
1 60 -39 0
1 -60 23 0
1 60 -25 0
1 55 -74 0
1 -55 -61 0
1 -55 -76 0
1 55 22 0
1 55 77 0
1 -55 59 0
1 -55 -63 0
1 -55 25 0
1 -55 54 0
1 -59 -78 0
1 59 26 0
1 -59 57 0
1 -59 -24 0
1 -59 -25 0
1 59 54 0
1 23 -21 0
1 -23 58 0
1 23 3 0
1 23 7 0
1 23 14 0
1 23 73 0
1 23 4 0
1 -23 -13 0
1 21 -32 0
1 21 58 0
1 -21 -79 0
1 21 -7 0
1 -21 14 0
1 21 -72 0
1 -21 -73 0
1 21 -13 0
1 39 19 0
1 -39 -38 0
1 -39 71 0
1 -39 -79 0
1 -39 77 0
1 -39 -72 0
1 -39 27 0
1 -38 19 0
1 -38 -31 0
1 38 -78 0
1 -38 58 0
1 38 -79 0
1 -38 -73 0
1 38 -27 0
1 79 21 0
1 -79 80 0
1 -79 39 0
1 79 73 0
1 79 -81 0
1 -79 46 0
1 -79 -35 0
1 -73 -26 0
1 -73 -79 0
1 73 -82 0
1 -73 45 0
1 -73 -33 0
1 73 83 0
1 73 39 0
1 -73 23 0
1 73 24 0
1 -73 81 0
1 73 -46 0
1 -71 -74 0
1 71 21 0
1 -71 26 0
1 71 -84 0
1 -71 82 0
1 71 -75 0
1 71 -39 0
1 -71 23 0
1 71 -81 0
1 71 -85 0
1 72 38 0
1 -72 -26 0
1 72 -71 0
1 72 86 0
1 72 75 0
1 72 -39 0
1 72 -24 0
1 -72 81 0
1 -72 -85 0
1 33 19 0
1 -33 9 0
1 -33 28 0
1 33 79 0
1 -33 -87 0
1 33 -14 0
1 33 16 0
1 -33 12 0
1 33 -73 0
1 33 -35 0
1 35 74 0
1 -35 -28 0
1 35 -87 0
1 35 33 0
1 -35 -16 0
1 -35 14 0
1 35 -12 0
1 -35 29 0
1 -35 -27 0
1 45 19 0
1 -45 88 0
1 45 -36 0
1 -45 -79 0
1 45 -86 0
1 45 -87 0
1 -45 -40 0
1 -45 34 0
1 -46 -88 0
1 -46 28 0
1 -46 79 0
1 -46 -45 0
1 46 87 0
1 46 -40 0
1 -46 -34 0
1 46 85 0
1 -16 -19 0
1 -16 38 0
1 16 33 0
1 16 -7 0
1 -16 -89 0
1 -16 -39 0
1 -16 90 0
1 16 44 0
1 19 -91 0
1 -19 -92 0
1 -19 -45 0
1 19 -16 0
1 19 39 0
1 19 13 0
1 -19 90 0
1 19 -93 0
1 19 -44 0
1 -19 35 0
1 -87 -82 0
1 87 -45 0
1 87 33 0
1 -87 -94 0
1 87 90 0
1 -87 81 0
1 -87 27 0
1 -87 -35 0
1 -27 -38 0
1 -27 -92 0
1 27 -82 0
1 -27 87 0
1 -27 -33 0
1 27 -39 0
1 27 -4 0
1 27 -90 0
1 -27 -95 0
1 -27 -46 0
1 27 96 0
1 -27 35 0
1 -43 88 0
1 43 28 0
1 -43 41 0
1 -43 -82 0
1 43 -40 0
1 43 34 0
1 -43 29 0
1 -43 -44 0
1 44 -19 0
1 44 -88 0
1 -44 -28 0
1 -44 -41 0
1 44 43 0
1 44 -16 0
1 -44 40 0
1 -44 29 0
1 -44 -81 0
1 -97 -19 0
1 97 88 0
1 97 -36 0
1 97 93 0
1 -97 -98 0
1 97 99 0
1 97 40 0
1 97 34 0
1 -97 -100 0
1 -93 -19 0
1 -93 -88 0
1 93 -36 0
1 -93 47 0
1 93 -97 0
1 93 16 0
1 93 100 0
1 -93 95 0
1 -34 -101 0
1 -34 -102 0
1 -34 97 0
1 -34 -45 0
1 -34 103 0
1 34 12 0
1 -34 -104 0
1 -34 105 0
1 34 93 0
1 -36 -101 0
1 -36 -106 0
1 -36 107 0
1 36 102 0
1 -36 104 0
1 -36 -34 0
1 36 108 0
1 36 -46 0
1 -40 92 0
1 -40 -97 0
1 40 43 0
1 40 45 0
1 40 -109 0
1 40 90 0
1 40 93 0
1 40 -46 0
1 88 110 0
1 -88 -101 0
1 -88 -92 0
1 -88 -43 0
1 88 45 0
1 -88 40 0
1 -88 -44 0
1 -102 -36 0
1 102 47 0
1 -102 -98 0
1 102 -111 0
1 102 -100 0
1 -108 -36 0
1 -108 -102 0
1 108 98 0
1 108 -34 0
1 -108 111 0
1 108 90 0
1 -108 100 0
1 107 36 0
1 -107 47 0
1 107 -98 0
1 -107 -104 0
1 -104 36 0
1 104 107 0
1 104 47 0
1 104 -34 0
1 -104 -112 0
1 -104 -111 0
1 104 100 0
1 100 107 0
1 -100 98 0
1 100 -97 0
1 100 -113 0
1 100 -30 0
1 100 93 0
1 100 -114 0
1 98 -115 0
1 -98 -102 0
1 98 -116 0
1 98 113 0
1 98 108 0
1 -98 -93 0
1 111 -107 0
1 -111 -47 0
1 111 -102 0
1 -111 113 0
1 111 117 0
1 -111 -103 0
1 111 104 0
1 -111 108 0
1 47 118 0
1 -47 119 0
1 -47 -97 0
1 -47 -117 0
1 47 111 0
1 47 104 0
1 47 -108 0
1 -47 93 0
1 51 120 0
1 51 -121 0
1 51 53 0
1 -51 -122 0
1 -51 123 0
1 -51 -5 0
1 -53 -120 0
1 -53 124 0
1 -53 -122 0
1 53 -51 0
1 56 120 0
1 -56 -121 0
1 56 -125 0
1 -56 126 0
1 56 123 0
1 56 127 0
1 128 121 0
1 128 125 0
1 128 57 0
1 128 -126 0
1 128 -122 0
1 128 -129 0
1 128 123 0
1 128 -130 0
1 123 -131 0
1 123 66 0
1 -123 -121 0
1 123 67 0
1 -123 128 0
1 -123 -132 0
1 -123 -68 0
1 -123 56 0
1 123 -51 0
1 -121 123 0
1 121 131 0
1 121 66 0
1 121 67 0
1 -121 -53 0
1 121 69 0
1 -121 -56 0
1 -121 51 0
1 122 120 0
1 122 -131 0
1 -122 -133 0
1 -122 -134 0
1 -122 -128 0
1 122 53 0
1 -122 -135 0
1 122 56 0
1 122 -51 0
1 120 136 0
1 -120 -134 0
1 -120 128 0
1 120 53 0
1 120 122 0
1 -120 137 0
1 120 135 0
1 -69 -121 0
1 69 67 0
1 69 -126 0
1 -69 -123 0
1 69 25 0
1 69 130 0
1 69 135 0
1 -67 -121 0
1 -67 22 0
1 -67 -125 0
1 -67 134 0
1 -67 -126 0
1 -67 130 0
1 -67 -49 0
1 -67 -69 0
1 67 129 0
1 68 121 0
1 -68 125 0
1 68 126 0
1 68 -138 0
1 -68 -49 0
1 -68 24 0
1 -68 123 0
1 68 129 0
1 68 139 0
1 -66 140 0
1 -66 -26 0
1 66 -121 0
1 -66 133 0
1 66 126 0
1 -66 -141 0
1 -66 -49 0
1 -66 68 0
1 66 -139 0
1 129 -142 0
1 129 -78 0
1 129 -66 0
1 129 128 0
1 -129 -126 0
1 -129 143 0
1 129 77 0
1 -129 -68 0
1 129 -69 0
1 129 144 0
1 -126 142 0
1 -126 -78 0
1 126 -61 0
1 126 66 0
1 -126 67 0
1 126 -77 0
1 126 63 0
1 -126 -69 0
1 126 -56 0
1 130 -145 0
1 130 -131 0
1 -130 -66 0
1 -130 128 0
1 130 143 0
1 130 146 0
1 130 -132 0
1 130 69 0
1 130 147 0
1 -130 -56 0
1 125 142 0
1 -125 145 0
1 125 131 0
1 -125 -128 0
1 -125 -130 0
1 -125 143 0
1 -125 -69 0
1 -63 -140 0
1 -63 -52 0
1 -63 61 0
1 63 49 0
1 -63 59 0
1 -63 132 0
1 -63 -129 0
1 61 -140 0
1 61 -48 0
1 -61 55 0
1 -61 131 0
1 -61 126 0
1 -61 49 0
1 61 -50 0
1 61 129 0
1 -77 78 0
1 77 65 0
1 -77 -141 0
1 -77 70 0
1 77 -39 0
1 77 64 0
1 -77 59 0
1 -77 129 0
1 -78 38 0
1 -78 145 0
1 -78 -70 0
1 -78 77 0
1 78 -59 0
1 78 64 0
1 -78 139 0
1 140 -74 0
1 -140 148 0
1 -140 -78 0
1 -140 66 0
1 140 149 0
1 140 -86 0
1 140 -75 0
1 -140 77 0
1 -140 -150 0
1 -140 -85 0
1 -138 -74 0
1 138 61 0
1 -138 -149 0
1 138 -86 0
1 138 -151 0
1 -138 -77 0
1 138 63 0
1 138 -68 0
1 138 -150 0
1 -138 -85 0
1 -139 -78 0
1 139 -61 0
1 -139 152 0
1 139 66 0
1 139 141 0
1 -139 143 0
1 -139 77 0
1 -139 -63 0
1 -139 68 0
1 141 -61 0
1 -141 66 0
1 -141 -149 0
1 -141 77 0
1 -141 -150 0
1 141 139 0
1 75 74 0
1 75 140 0
1 -75 -65 0
1 -75 -62 0
1 -75 55 0
1 75 -58 0
1 -75 71 0
1 75 138 0
1 75 33 0
1 -75 70 0
1 -75 -64 0
1 75 -59 0
1 -74 -140 0
1 74 -65 0
1 74 -55 0
1 74 71 0
1 74 -138 0
1 74 70 0
1 74 64 0
1 -74 59 0
1 -74 60 0
1 74 -72 0
1 86 -153 0
1 -86 -71 0
1 86 138 0
1 -86 70 0
1 -86 64 0
1 -86 72 0
1 86 -85 0
1 85 -76 0
1 -85 153 0
1 85 -154 0
1 -85 -155 0
1 85 -46 0
1 -85 -156 0
1 -62 74 0
1 62 -52 0
1 -62 157 0
1 -62 -99 0
1 62 -75 0
1 62 77 0
1 -64 -74 0
1 -64 -158 0
1 -64 86 0
1 -64 -75 0
1 64 -50 0
1 -64 77 0
1 -64 159 0
1 -64 160 0
1 -64 -81 0
1 64 -85 0
1 -65 -48 0
1 -65 78 0
1 -65 -161 0
1 65 -162 0
1 -65 -149 0
1 -65 86 0
1 -65 -160 0
1 70 -158 0
1 70 -162 0
1 -70 -149 0
1 70 -86 0
1 -70 -77 0
1 70 -160 0
1 70 -85 0
1 82 -76 0
1 82 153 0
1 82 -43 0
1 -82 -149 0
1 -82 -154 0
1 -82 -72 0
1 82 -81 0
1 81 62 0
1 -81 -153 0
1 -81 -71 0
1 -81 -87 0
1 -81 64 0
1 -81 154 0
1 81 44 0
1 -81 -150 0
1 -99 -163 0
1 -99 76 0
1 -99 -153 0
1 -99 -84 0
1 -99 162 0
1 99 80 0
1 -99 -64 0
1 -99 83 0
1 95 -62 0
1 -95 153 0
1 95 -99 0
1 -95 -80 0
1 -95 64 0
1 -95 154 0
1 -95 155 0
1 -95 -163 0
1 -95 83 0
1 -95 -27 0
1 153 155 0
1 153 164 0
1 -153 165 0
1 153 58 0
1 153 166 0
1 -153 -99 0
1 -153 167 0
1 153 112 0
1 153 -95 0
1 -155 -164 0
1 -155 165 0
1 155 92 0
1 155 153 0
1 -155 60 0
1 -155 90 0
1 -155 168 0
1 155 -95 0
1 -155 -81 0
1 155 -85 0
1 -76 164 0
1 76 55 0
1 -76 -169 0
1 -76 -167 0
1 -76 -160 0
1 -76 95 0
1 76 81 0
1 -76 -85 0
1 -154 -164 0
1 154 170 0
1 154 171 0
1 154 158 0
1 154 99 0
1 -154 82 0
1 154 -86 0
1 -154 -59 0
1 154 -172 0
1 -154 -160 0
1 154 -81 0
1 154 -85 0
1 -92 155 0
1 92 158 0
1 -92 84 0
1 -92 -87 0
1 -92 90 0
1 -92 -163 0
1 -92 -83 0
1 92 -27 0
1 90 88 0
1 90 -153 0
1 -90 -84 0
1 90 87 0
1 -90 -16 0
1 -90 40 0
1 90 -160 0
1 90 163 0
1 -165 -91 0
1 -165 88 0
1 -165 -107 0
1 -165 -171 0
1 165 -84 0
1 -165 -80 0
1 165 -89 0
1 165 -40 0
1 -165 -112 0
1 165 -155 0
1 -165 163 0
1 -165 -83 0
1 165 96 0
1 112 88 0
1 -112 153 0
1 112 89 0
1 112 104 0
1 -112 172 0
1 112 -155 0
1 112 96 0
1 -80 118 0
1 -80 -165 0
1 80 92 0
1 80 -173 0
1 80 103 0
1 80 90 0
1 -83 -118 0
1 -83 -101 0
1 83 -99 0
1 83 80 0
1 83 -95 0
1 84 -164 0
1 -84 99 0
1 84 -174 0
1 84 173 0
1 -84 -95 0
1 -163 -175 0
1 163 -176 0
1 163 -165 0
1 -163 -92 0
1 163 -99 0
1 163 84 0
1 -163 -177 0
1 163 167 0
1 163 -112 0
1 163 72 0
1 -163 95 0
1 101 91 0
1 101 36 0
1 -101 47 0
1 -101 -80 0
1 101 94 0
1 101 103 0
1 101 -40 0
1 101 111 0
1 101 96 0
1 -103 -91 0
1 -103 -36 0
1 103 80 0
1 -103 40 0
1 -118 91 0
1 -118 -176 0
1 -118 110 0
1 -118 -117 0
1 118 111 0
1 118 83 0
1 118 -96 0
1 -117 -110 0
1 117 -106 0
1 117 -177 0
1 117 -109 0
1 -117 96 0
1 -89 -115 0
1 -89 -91 0
1 -89 -118 0
1 -89 -101 0
1 89 -178 0
1 89 179 0
1 -89 -16 0
1 -89 103 0
1 -89 180 0
1 89 181 0
1 91 115 0
1 91 -19 0
1 91 -118 0
1 91 -182 0
1 -91 165 0
1 91 178 0
1 -91 -179 0
1 91 -117 0
1 91 103 0
1 -91 -112 0
1 -91 -183 0
1 94 -118 0
1 94 178 0
1 94 -184 0
1 -94 87 0
1 94 185 0
1 -94 -103 0
1 -94 112 0
1 -94 186 0
1 96 175 0
1 96 -118 0
1 96 165 0
1 96 117 0
1 96 94 0
1 -115 175 0
1 -115 106 0
1 -115 98 0
1 115 113 0
1 -115 109 0
1 115 100 0
1 113 -115 0
1 113 91 0
1 -113 -110 0
1 -113 106 0
1 -113 173 0
1 113 -109 0
1 -113 105 0
1 113 111 0
1 113 -100 0
1 183 -91 0
1 183 110 0
1 -183 106 0
1 -183 119 0
1 -183 116 0
1 -183 -179 0
1 183 -89 0
1 -183 114 0
1 -179 -91 0
1 179 119 0
1 179 -116 0
1 179 109 0
1 179 -105 0
1 179 -114 0
1 -105 106 0
1 105 -187 0
1 -105 -188 0
1 -105 189 0
1 105 -179 0
1 105 -117 0
1 -105 190 0
1 105 -191 0
1 106 36 0
1 -106 187 0
1 -106 188 0
1 106 113 0
1 106 -117 0
1 -106 190 0
1 106 -191 0
1 -109 -118 0
1 -109 178 0
1 109 179 0
1 -109 -113 0
1 109 -117 0
1 109 -181 0
1 -109 -183 0
1 -110 -115 0
1 -110 118 0
1 110 -88 0
1 -110 192 0
1 -110 187 0
1 -110 178 0
1 110 113 0
1 -110 117 0
1 -110 193 0
1 110 194 0
1 110 181 0
1 191 -119 0
1 -191 -195 0
1 -191 -181 0
1 -189 -106 0
1 -189 -116 0
1 189 -105 0
1 -189 -114 0
1 189 191 0
1 -190 -106 0
1 190 195 0
1 190 -114 0
1 -190 -194 0
1 -188 114 0
1 188 -119 0
1 188 116 0
1 -188 196 0
1 -188 -195 0
1 114 116 0
1 -114 100 0
1 -114 190 0
1 -116 114 0
1 -116 -197 0
1 -116 -189 0
1 116 -190 0
1 -116 191 0
1 195 197 0
1 -195 198 0
1 -195 -188 0
1 195 -179 0
1 -195 -199 0
1 -195 200 0
1 195 -190 0
1 195 183 0
1 119 197 0
1 -119 -47 0
1 -119 -189 0
1 -119 -201 0
1 119 -199 0
1 119 -195 0
1 -119 -193 0
1 -119 -190 0
1 -119 -191 0
1 -119 -183 0
1 -202 203 0
1 202 124 0
1 202 -204 0
1 202 205 0
1 -202 51 0
1 124 203 0
1 -124 -206 0
1 -124 53 0
1 124 204 0
1 127 -206 0
1 127 -207 0
1 127 -204 0
1 127 205 0
1 127 -208 0
1 -127 -209 0
1 210 -208 0
1 -210 -203 0
1 210 -128 0
1 210 211 0
1 210 -204 0
1 210 127 0
1 206 -134 0
1 -206 -210 0
1 206 -124 0
1 206 -135 0
1 206 202 0
1 -205 206 0
1 205 137 0
1 -205 -135 0
1 203 210 0
1 -203 -212 0
1 -203 124 0
1 -203 204 0
1 -203 -127 0
1 203 202 0
1 204 -203 0
1 204 -124 0
1 -204 213 0
1 -135 -120 0
1 -135 134 0
1 135 207 0
1 135 -211 0
1 -135 69 0
1 135 -209 0
1 134 -206 0
1 -134 207 0
1 134 -211 0
1 -134 -135 0
1 -134 208 0
1 134 209 0
1 137 -214 0
1 -137 120 0
1 137 207 0
1 137 211 0
1 137 215 0
1 -137 216 0
1 137 122 0
1 -137 -68 0
1 137 -205 0
1 137 208 0
1 133 214 0
1 133 217 0
1 133 66 0
1 133 206 0
1 133 211 0
1 133 -216 0
1 133 137 0
1 133 -208 0
1 -133 209 0
1 211 -218 0
1 211 -131 0
1 -211 133 0
1 211 -134 0
1 211 146 0
1 -209 219 0
1 209 -145 0
1 209 -131 0
1 -209 134 0
1 -209 -211 0
1 209 220 0
1 209 -146 0
1 -209 -137 0
1 209 135 0
1 207 218 0
1 207 134 0
1 -207 -221 0
1 207 -137 0
1 -207 135 0
1 -207 127 0
1 208 -218 0
1 208 -134 0
1 208 -137 0
1 208 135 0
1 -208 127 0
1 208 -222 0
1 132 -131 0
1 132 121 0
1 -132 120 0
1 132 211 0
1 -132 216 0
1 -132 122 0
1 -132 -209 0
1 131 -214 0
1 -131 217 0
1 -131 -121 0
1 131 -125 0
1 131 211 0
1 -131 -215 0
1 -131 122 0
1 131 132 0
1 131 123 0
1 -131 130 0
1 146 -214 0
1 -146 -145 0
1 -146 -136 0
1 -146 223 0
1 146 125 0
1 -146 211 0
1 146 -77 0
1 -146 216 0
1 -146 -224 0
1 -146 -130 0
1 146 -209 0
1 -145 214 0
1 145 -217 0
1 -145 -136 0
1 145 223 0
1 -145 215 0
1 145 224 0
1 145 -130 0
1 216 145 0
1 216 -131 0
1 216 -133 0
1 216 -225 0
1 216 143 0
1 216 -226 0
1 -216 132 0
1 216 -137 0
1 -216 227 0
1 -216 156 0
1 -217 145 0
1 -217 228 0
1 -217 131 0
1 217 133 0
1 -217 -225 0
1 217 229 0
1 -217 143 0
1 217 216 0
1 217 146 0
1 -217 -132 0
1 217 -137 0
1 217 156 0
1 -215 230 0
1 215 -214 0
1 -215 -218 0
1 -215 145 0
1 215 225 0
1 -215 132 0
1 215 -227 0
1 -214 230 0
1 214 231 0
1 214 -145 0
1 -214 -232 0
1 -214 -146 0
1 214 132 0
1 214 -137 0
1 214 -227 0
1 143 217 0
1 143 -136 0
1 143 -223 0
1 -143 125 0
1 -143 -126 0
1 143 -141 0
1 -143 75 0
1 -143 220 0
1 -143 -224 0
1 143 -233 0
1 -143 -130 0
1 143 129 0
1 142 -74 0
1 142 218 0
1 142 -217 0
1 -142 -136 0
1 142 -223 0
1 -142 125 0
1 142 -126 0
1 142 -141 0
1 142 143 0
1 142 216 0
1 229 217 0
1 229 136 0
1 229 -234 0
1 229 235 0
1 -229 141 0
1 -229 -216 0
1 229 233 0
1 229 -147 0
1 -229 -139 0
1 229 -156 0
1 156 -230 0
1 156 136 0
1 -156 -223 0
1 -156 235 0
1 -156 -141 0
1 156 229 0
1 156 216 0
1 -156 233 0
1 -156 147 0
1 156 144 0
1 -156 -139 0
1 -156 85 0
1 233 -142 0
1 -233 -223 0
1 233 236 0
1 -233 -162 0
1 -233 -149 0
1 233 143 0
1 233 146 0
1 -233 -123 0
1 233 -237 0
1 233 238 0
1 233 -150 0
1 233 156 0
1 -223 -145 0
1 223 -121 0
1 223 239 0
1 -223 -236 0
1 223 149 0
1 -223 -229 0
1 -223 143 0
1 223 233 0
1 -223 238 0
1 223 150 0
1 223 156 0
1 -224 -136 0
1 -224 240 0
1 224 -225 0
1 224 -229 0
1 224 -146 0
1 -224 -241 0
1 -224 237 0
1 224 -242 0
1 224 -227 0
1 -136 142 0
1 136 -120 0
1 136 243 0
1 136 -236 0
1 136 -240 0
1 136 -229 0
1 136 143 0
1 136 -242 0
1 -136 -227 0
1 -136 156 0
1 -149 65 0
1 -149 234 0
1 -149 -235 0
1 -149 -82 0
1 -149 -141 0
1 -149 225 0
1 149 138 0
1 149 147 0
1 149 -150 0
1 150 234 0
1 -150 -235 0
1 150 141 0
1 -150 -149 0
1 -150 138 0
1 150 70 0
1 -150 -233 0
1 150 -147 0
1 -150 81 0
1 -150 227 0
1 162 148 0
1 162 65 0
1 -162 -223 0
1 162 99 0
1 -162 -235 0
1 162 244 0
1 -162 -70 0
1 162 238 0
1 -162 -144 0
1 238 148 0
1 -238 -223 0
1 238 -244 0
1 -238 -151 0
1 238 -70 0
1 -238 -95 0
1 -238 -147 0
1 144 158 0
1 144 -162 0
1 -144 235 0
1 -144 -229 0
1 -144 245 0
1 144 172 0
1 144 -238 0
1 144 129 0
1 144 156 0
1 -235 -171 0
1 -235 -158 0
1 235 162 0
1 235 -246 0
1 235 149 0
1 235 -229 0
1 -235 160 0
1 235 -238 0
1 235 144 0
1 235 156 0
1 147 -247 0
1 -147 236 0
1 147 -149 0
1 -147 -130 0
1 -234 -248 0
1 -234 249 0
1 -234 -149 0
1 -234 -229 0
1 234 -245 0
1 234 -250 0
1 -234 237 0
1 -234 -238 0
1 234 -150 0
1 -234 156 0
1 -158 -65 0
1 -158 76 0
1 158 92 0
1 158 236 0
1 -158 244 0
1 158 151 0
1 -158 64 0
1 -158 -160 0
1 -158 -144 0
1 160 -65 0
1 -160 -62 0
1 160 235 0
1 160 -151 0
1 -160 64 0
1 -160 -154 0
1 160 -152 0
1 -171 -165 0
1 171 247 0
1 -171 -244 0
1 171 -159 0
1 -171 154 0
1 171 172 0
1 -171 152 0
1 -172 148 0
1 -172 161 0
1 -172 -157 0
1 -172 76 0
1 172 -171 0
1 -172 -235 0
1 172 -244 0
1 -172 151 0
1 -172 159 0
1 -172 112 0
1 172 152 0
1 148 251 0
1 -148 -176 0
1 -148 164 0
1 -148 171 0
1 -148 158 0
1 148 -162 0
1 -148 252 0
1 148 167 0
1 -148 -160 0
1 148 238 0
1 -151 -251 0
1 -151 164 0
1 -151 -171 0
1 -151 -158 0
1 151 162 0
1 151 138 0
1 -151 -252 0
1 151 -177 0
1 151 -253 0
1 151 172 0
1 151 238 0
1 -152 254 0
1 152 -251 0
1 152 255 0
1 -152 -248 0
1 152 162 0
1 152 -244 0
1 152 -245 0
1 152 172 0
1 152 -238 0
1 -152 -139 0
1 -244 -255 0
1 244 171 0
1 -244 -158 0
1 244 162 0
1 244 141 0
1 -244 -256 0
1 244 -252 0
1 -244 257 0
1 244 172 0
1 -244 160 0
1 164 -148 0
1 164 248 0
1 164 -153 0
1 164 -258 0
1 -164 -167 0
1 -164 154 0
1 -164 163 0
1 -167 148 0
1 167 -161 0
1 -167 -157 0
1 167 -153 0
1 -167 84 0
1 -167 258 0
1 167 245 0
1 167 159 0
1 167 -155 0
1 -167 163 0
1 -176 148 0
1 -176 255 0
1 176 -161 0
1 -176 -157 0
1 176 -169 0
1 -176 151 0
1 -176 177 0
1 176 258 0
1 -176 159 0
1 176 -170 0
1 -176 163 0
1 -177 148 0
1 177 176 0
1 -177 -157 0
1 -177 -151 0
1 177 -117 0
1 177 257 0
1 -177 258 0
1 177 -168 0
1 -157 -176 0
1 157 259 0
1 -157 -173 0
1 157 -172 0
1 157 186 0
1 159 -175 0
1 -159 -164 0
1 159 -171 0
1 159 260 0
1 -159 184 0
1 -159 173 0
1 -159 177 0
1 -159 64 0
1 -159 -261 0
1 161 262 0
1 161 251 0
1 161 176 0
1 161 -171 0
1 161 -263 0
1 161 258 0
1 -258 161 0
1 258 -171 0
1 258 260 0
1 258 263 0
1 -258 252 0
1 258 70 0
1 -258 264 0
1 258 -172 0
1 175 -115 0
1 -175 -166 0
1 175 -84 0
1 175 -173 0
1 175 -159 0
1 175 -168 0
1 175 83 0
1 173 -175 0
1 -173 -169 0
1 -173 -166 0
1 -173 -80 0
1 173 94 0
1 -173 252 0
1 173 -159 0
1 -173 168 0
1 -186 169 0
1 -186 166 0
1 -186 -174 0
1 186 -184 0
1 186 -265 0
1 186 94 0
1 186 159 0
1 -186 -168 0
1 186 -183 0
1 186 -96 0
1 184 157 0
1 184 -169 0
1 -184 -186 0
1 -184 174 0
1 184 265 0
1 184 263 0
1 -184 94 0
1 -184 159 0
1 -184 170 0
1 184 -168 0
1 184 -266 0
1 -184 -267 0
1 184 96 0
1 166 -175 0
1 -166 176 0
1 166 268 0
1 166 153 0
1 166 -196 0
1 -166 -269 0
1 166 -178 0
1 -166 -184 0
1 166 -177 0
1 166 -270 0
1 166 -194 0
1 -166 186 0
1 168 175 0
1 168 -176 0
1 168 -268 0
1 168 -196 0
1 168 166 0
1 168 173 0
1 -168 177 0
1 -168 -155 0
1 -168 -271 0
1 168 -181 0
1 168 186 0
1 -169 175 0
1 -169 -76 0
1 169 -268 0
1 169 272 0
1 -169 184 0
1 -169 173 0
1 169 -177 0
1 -169 170 0
1 169 -186 0
1 -170 176 0
1 -170 -169 0
1 -170 273 0
1 -170 -260 0
1 170 -177 0
1 -170 270 0
1 170 274 0
1 170 186 0
1 -181 178 0
1 -181 265 0
1 -181 -109 0
1 181 191 0
1 181 96 0
1 -178 110 0
1 178 -94 0
1 178 89 0
1 -178 -109 0
1 178 266 0
1 178 181 0
1 194 -275 0
1 -194 -110 0
1 -194 -166 0
1 194 185 0
1 194 -180 0
1 194 266 0
1 -194 -274 0
1 -194 -267 0
1 -196 -275 0
1 -196 182 0
1 -196 -188 0
1 -196 166 0
1 196 -273 0
1 196 -174 0
1 196 -266 0
1 -196 -265 0
1 -196 180 0
1 196 -109 0
1 -196 -168 0
1 -196 194 0
1 265 -276 0
1 -265 -198 0
1 265 187 0
1 -265 -196 0
1 -265 178 0
1 265 -80 0
1 -265 184 0
1 265 -277 0
1 265 -278 0
1 -265 199 0
1 -265 267 0
1 -265 -193 0
1 -265 194 0
1 -265 -181 0
1 265 -186 0
1 267 276 0
1 267 198 0
1 -267 -187 0
1 -267 196 0
1 -267 178 0
1 -267 265 0
1 -267 -278 0
1 -267 -193 0
1 -267 194 0
1 267 -83 0
1 267 -279 0
1 -267 186 0
1 174 276 0
1 174 -84 0
1 174 -178 0
1 -174 -266 0
1 -174 -270 0
1 -174 -194 0
1 174 -181 0
1 -174 186 0
1 -266 280 0
1 266 -268 0
1 266 184 0
1 266 278 0
1 -266 281 0
1 -266 163 0
1 -266 194 0
1 -266 -186 0
1 193 -275 0
1 -193 -182 0
1 -193 110 0
1 -193 119 0
1 -193 187 0
1 193 265 0
1 -193 -185 0
1 -193 180 0
1 -193 109 0
1 -193 -105 0
1 193 195 0
1 -193 270 0
1 193 267 0
1 -187 -275 0
1 -187 182 0
1 -187 -106 0
1 187 -119 0
1 -187 185 0
1 -187 -180 0
1 -187 -109 0
1 187 -105 0
1 187 193 0
1 199 182 0
1 -199 192 0
1 199 -198 0
1 199 282 0
1 -199 -281 0
1 -199 -283 0
1 199 284 0
1 -199 -195 0
1 -198 -275 0
1 198 280 0
1 -198 265 0
1 -198 283 0
1 -198 199 0
1 -198 -195 0
1 -180 -285 0
1 180 286 0
1 -180 -197 0
1 180 -198 0
1 180 187 0
1 -180 196 0
1 -180 287 0
1 -180 288 0
1 -180 201 0
1 -180 -199 0
1 180 193 0
1 180 194 0
1 182 -187 0
1 -182 -196 0
1 182 288 0
1 182 -201 0
1 182 -199 0
1 182 -193 0
1 -185 -285 0
1 185 -275 0
1 -185 289 0
1 -185 276 0
1 185 198 0
1 185 -187 0
1 185 94 0
1 185 287 0
1 185 -290 0
1 -185 -193 0
1 185 194 0
1 275 -289 0
1 275 -276 0
1 -275 -198 0
1 275 -187 0
1 275 196 0
1 275 287 0
1 -275 278 0
1 -275 193 0
1 275 -96 0
1 201 -182 0
1 201 192 0
1 -201 -283 0
1 201 -195 0
1 201 114 0
1 -197 -182 0
1 197 -282 0
1 -197 180 0
1 -197 -283 0
1 197 -284 0
1 197 195 0
1 -288 -286 0
1 288 -182 0
1 -288 -192 0
1 -288 291 0
1 288 -292 0
1 -288 180 0
1 288 -283 0
1 -288 284 0
1 -288 293 0
1 286 -292 0
1 -286 -180 0
1 -286 283 0
1 286 -284 0
1 -286 -293 0
1 284 -198 0
1 -284 282 0
1 284 294 0
1 -284 -295 0
1 -284 288 0
1 284 201 0
1 -284 -105 0
1 -284 296 0
1 -282 294 0
1 282 -201 0
1 282 -199 0
1 282 -297 0
1 -283 -285 0
1 -283 -197 0
1 -283 -192 0
1 283 198 0
1 283 -287 0
1 -283 -298 0
1 192 285 0
1 192 286 0
1 -192 -110 0
1 -192 299 0
1 -192 287 0
1 192 288 0
1 192 283 0
1 192 -199 0
1 -192 -298 0
1 -295 282 0
1 295 -287 0
1 -295 -297 0
1 295 200 0
1 295 -293 0
1 297 285 0
1 297 -282 0
1 297 292 0
1 -297 200 0
1 297 -293 0
1 -294 282 0
1 294 -291 0
1 -294 299 0
1 -294 -284 0
1 294 200 0
1 -294 293 0
1 -296 282 0
1 296 291 0
1 296 -292 0
1 296 -294 0
1 296 -284 0
1 -296 293 0
1 -293 294 0
1 293 295 0
1 -293 288 0
1 -293 -114 0
1 293 -296 0
1 292 116 0
1 -292 -294 0
1 -292 288 0
1 -292 293 0
1 292 296 0
1 292 297 0
1 -200 286 0
1 200 -291 0
1 -200 294 0
1 200 -288 0
1 -200 -296 0
1 200 297 0
1 291 286 0
1 -291 -119 0
1 -291 200 0
1 291 -296 0
1 -291 297 0
1 220 -300 0
1 -220 -211 0
1 220 -301 0
1 -220 208 0
1 -220 -209 0
1 218 214 0
1 -218 212 0
1 218 -207 0
1 -218 211 0
1 218 215 0
1 -218 -220 0
1 218 -213 0
1 -218 -301 0
1 -218 208 0
1 -232 219 0
1 -232 -300 0
1 -232 221 0
1 232 -229 0
1 232 -215 0
1 232 -213 0
1 -232 301 0
1 -232 222 0
1 230 219 0
1 -230 -214 0
1 -230 212 0
1 230 -300 0
1 230 -221 0
1 230 215 0
1 -230 -302 0
1 -230 213 0
1 -230 -222 0
1 -230 -156 0
1 -300 230 0
1 -300 -206 0
1 300 225 0
1 300 232 0
1 -300 227 0
1 -300 -301 0
1 301 -218 0
1 -301 -300 0
1 301 225 0
1 -301 232 0
1 301 -220 0
1 -301 205 0
1 -212 230 0
1 212 -203 0
1 -212 -303 0
1 212 -232 0
1 -212 -220 0
1 -212 213 0
1 -213 -230 0
1 -213 218 0
1 213 -212 0
1 -213 -304 0
1 225 -219 0
1 225 -217 0
1 225 -136 0
1 -225 -222 0
1 225 -300 0
1 225 -149 0
1 225 -215 0
1 -225 -216 0
1 225 227 0
1 -227 -136 0
1 227 -216 0
1 -227 224 0
1 -227 301 0
1 -227 150 0
1 240 -219 0
1 240 136 0
1 240 -221 0
1 240 224 0
1 -240 -242 0
1 -240 222 0
1 242 -136 0
1 -242 240 0
1 242 -300 0
1 242 -221 0
1 242 -305 0
1 -242 226 0
1 -242 -238 0
1 302 -230 0
1 302 306 0
1 -302 -247 0
1 -302 -236 0
1 302 225 0
1 -302 -232 0
1 -302 -237 0
1 219 230 0
1 -219 -236 0
1 -219 225 0
1 219 232 0
1 -219 -302 0
1 -219 250 0
1 -219 237 0
1 -219 242 0
1 219 -209 0
1 -221 -306 0
1 221 -207 0
1 -221 225 0
1 -221 -232 0
1 -221 242 0
1 -221 -227 0
1 222 306 0
1 222 240 0
1 222 225 0
1 222 -227 0
1 -222 307 0
1 -236 219 0
1 236 -223 0
1 236 234 0
1 236 -305 0
1 -236 233 0
1 -236 237 0
1 236 -147 0
1 237 -228 0
1 -237 -223 0
1 237 147 0
1 237 -226 0
1 -237 224 0
1 237 -160 0
1 -247 -219 0
1 247 -228 0
1 247 241 0
1 -247 243 0
1 -247 -171 0
1 -247 -302 0
1 -247 -250 0
1 -247 -147 0
1 -250 -219 0
1 -250 -228 0
1 -250 -243 0
1 250 -247 0
1 250 -234 0
1 -250 -302 0
1 250 305 0
1 -250 226 0
1 250 -241 0
1 250 308 0
1 226 309 0
1 226 -228 0
1 -226 -248 0
1 226 247 0
1 -226 310 0
1 226 -257 0
1 226 -311 0
1 -226 250 0
1 -228 -217 0
1 228 -248 0
1 -228 312 0
1 -228 -247 0
1 228 -236 0
1 228 245 0
1 -228 -250 0
1 -228 -242 0
1 -305 247 0
1 305 -310 0
1 305 -215 0
1 -305 313 0
1 305 -237 0
1 -305 242 0
1 231 -214 0
1 -231 -314 0
1 -231 315 0
1 -231 -306 0
1 231 -236 0
1 -231 -240 0
1 -231 310 0
1 231 313 0
1 -231 -237 0
1 -248 -228 0
1 248 164 0
1 248 -306 0
1 -248 239 0
1 -248 -234 0
1 -248 -235 0
1 -248 -244 0
1 248 147 0
1 248 -152 0
1 245 -228 0
1 245 167 0
1 255 -315 0
1 255 -243 0
1 -255 -239 0
1 -255 -249 0
1 255 -246 0
1 -255 -244 0
1 255 -257 0
1 255 241 0
1 -255 308 0
1 255 -152 0
1 257 228 0
1 257 -239 0
1 -257 -249 0
1 257 246 0
1 -257 -177 0
1 257 -313 0
1 257 241 0
1 257 -308 0
1 -257 316 0
1 257 152 0
1 -308 -262 0
1 -308 251 0
1 308 255 0
1 -308 248 0
1 -308 -239 0
1 308 -317 0
1 -308 257 0
1 -308 -245 0
1 -308 318 0
1 -308 319 0
1 -239 -251 0
1 -239 255 0
1 239 -223 0
1 -239 -247 0
1 239 320 0
1 -239 317 0
1 239 -263 0
1 239 252 0
1 239 -257 0
1 -239 -308 0
1 239 -319 0
1 241 309 0
1 -241 -255 0
1 241 -248 0
1 -241 -247 0
1 241 317 0
1 241 321 0
1 241 -245 0
1 -241 -224 0
1 -241 250 0
1 -241 -322 0
1 -243 309 0
1 243 241 0
1 243 136 0
1 -243 247 0
1 -243 323 0
1 -243 321 0
1 -243 -257 0
1 243 -245 0
1 251 -309 0
1 -251 161 0
1 -251 -239 0
1 -251 -249 0
1 251 246 0
1 251 258 0
1 251 -308 0
1 -251 152 0
1 252 -148 0
1 -252 251 0
1 252 239 0
1 -252 -249 0
1 252 -244 0
1 -252 -173 0
1 -252 310 0
1 -252 152 0
1 262 -254 0
1 -262 -249 0
1 262 246 0
1 262 263 0
1 -262 256 0
1 -262 -253 0
1 -262 -308 0
1 -262 324 0
1 -262 316 0
1 -262 186 0
1 -263 -262 0
1 -263 -254 0
1 263 -325 0
1 -263 161 0
1 263 -239 0
1 263 -184 0
1 -263 256 0
1 -263 253 0
1 -263 -258 0
1 -263 324 0
1 -316 -251 0
1 316 -255 0
1 -316 -326 0
1 -316 -273 0
1 316 -260 0
1 316 246 0
1 -316 -263 0
1 -316 252 0
1 316 144 0
1 246 255 0
1 246 273 0
1 246 -235 0
1 -246 260 0
1 -246 327 0
1 -246 263 0
1 -246 -257 0
1 246 -328 0
1 -246 -274 0
1 -246 316 0
1 324 -262 0
1 324 251 0
1 324 326 0
1 324 -249 0
1 324 -317 0
1 324 -252 0
1 -324 -257 0
1 324 329 0
1 324 328 0
1 324 147 0
1 324 -330 0
1 324 319 0
1 -249 317 0
1 249 263 0
1 249 -252 0
1 -249 257 0
1 249 -330 0
1 -260 -254 0
1 -260 -325 0
1 260 157 0
1 -260 246 0
1 -260 253 0
1 -260 159 0
1 -260 170 0
1 260 -316 0
1 -274 -254 0
1 274 325 0
1 -274 -331 0
1 274 273 0
1 -274 256 0
1 274 253 0
1 -274 264 0
1 -274 -261 0
1 274 -330 0
1 -274 316 0
1 273 325 0
1 273 331 0
1 -273 259 0
1 -273 -169 0
1 -273 -196 0
1 -273 332 0
1 -273 256 0
1 -273 -253 0
1 -273 -261 0
1 -273 170 0
1 -273 -274 0
1 273 -316 0
1 -325 -148 0
1 -325 -333 0
1 325 -273 0
1 325 -263 0
1 325 -274 0
1 -253 262 0
1 -253 -333 0
1 253 -280 0
1 253 -268 0
1 -253 -273 0
1 253 263 0
1 -253 151 0
1 -253 -281 0
1 253 270 0
1 254 262 0
1 254 334 0
1 254 260 0
1 -254 -263 0
1 -254 -335 0
1 254 -336 0
1 -256 262 0
1 -256 254 0
1 -256 -333 0
1 -256 273 0
1 256 -260 0
1 -256 263 0
1 -256 335 0
1 -256 336 0
1 -256 274 0
1 270 325 0
1 -270 -331 0
1 -270 -268 0
1 -270 -169 0
1 270 -253 0
1 270 -261 0
1 270 -170 0
1 270 193 0
1 270 -168 0
1 270 328 0
1 -270 266 0
1 -268 325 0
1 -268 187 0
1 268 166 0
1 268 253 0
1 268 -170 0
1 268 266 0
1 281 -325 0
1 -281 -331 0
1 281 -259 0
1 281 174 0
1 -281 -253 0
1 -281 264 0
1 281 -199 0
1 -281 271 0
1 -281 -266 0
1 -281 337 0
1 -280 -331 0
1 280 334 0
1 280 -259 0
1 280 264 0
1 -280 -261 0
1 280 -281 0
1 280 -337 0
1 259 157 0
1 259 268 0
1 -259 338 0
1 259 278 0
1 -259 -281 0
1 259 274 0
1 261 339 0
1 261 -280 0
1 -261 273 0
1 -261 -338 0
1 261 290 0
1 -261 -274 0
1 -331 339 0
1 -331 -340 0
1 331 333 0
1 331 -268 0
1 331 -338 0
1 -331 -341 0
1 -331 -281 0
1 331 270 0
1 331 274 0
1 -264 339 0
1 264 -340 0
1 -264 333 0
1 264 -280 0
1 -264 -258 0
1 264 341 0
1 -264 -335 0
1 -264 -281 0
1 278 -276 0
1 -278 259 0
1 -278 -272 0
1 278 269 0
1 278 -174 0
1 278 265 0
1 278 -185 0
1 278 335 0
1 278 -261 0
1 278 337 0
1 -278 -271 0
1 278 -267 0
1 276 -275 0
1 276 197 0
1 -276 -333 0
1 276 -185 0
1 -276 -271 0
1 -290 275 0
1 -290 289 0
1 290 -259 0
1 290 272 0
1 290 342 0
1 290 277 0
1 -290 341 0
1 290 337 0
1 -290 271 0
1 290 -343 0
1 -290 -279 0
1 289 286 0
1 -289 259 0
1 -289 -269 0
1 -289 -277 0
1 -289 185 0
1 -289 290 0
1 289 -271 0
1 -289 279 0
1 -269 -289 0
1 -269 276 0
1 269 280 0
1 -269 -166 0
1 -269 -299 0
1 -269 287 0
1 269 290 0
1 -269 278 0
1 269 -281 0
1 269 298 0
1 271 285 0
1 -271 -280 0
1 -271 -269 0
1 -271 -287 0
1 -271 278 0
1 271 281 0
1 -271 -168 0
1 271 -298 0
1 -272 -289 0
1 272 -280 0
1 272 -169 0
1 272 -344 0
1 -272 -290 0
1 -272 281 0
1 272 -345 0
1 -337 339 0
1 337 289 0
1 -337 272 0
1 337 -344 0
1 -337 -338 0
1 337 290 0
1 337 -278 0
1 -337 345 0
1 287 285 0
1 -287 182 0
1 -287 -192 0
1 287 -277 0
1 287 -185 0
1 287 -180 0
1 287 283 0
1 287 -271 0
1 -287 343 0
1 -285 -275 0
1 -285 339 0
1 285 -182 0
1 -285 342 0
1 285 180 0
1 -285 -283 0
1 -285 -271 0
1 285 -297 0
1 299 -342 0
1 -299 -294 0
1 -299 -277 0
1 -299 -344 0
1 -299 -283 0
1 -299 343 0
1 298 342 0
1 298 271 0
1 -298 -343 0
1 -298 279 0
1 277 -285 0
1 277 289 0
1 277 -265 0
1 -277 -287 0
1 -277 290 0
1 -277 298 0
1 -279 285 0
1 -279 289 0
1 279 -299 0
1 -279 277 0
1 279 -287 0
1 279 -290 0
1 -279 267 0
1 -279 298 0
1 -342 285 0
1 342 -289 0
1 342 299 0
1 342 -287 0
1 342 343 0
1 343 -285 0
1 343 289 0
1 -343 342 0
1 343 299 0
1 343 287 0
1 -343 -290 0
1 -343 266 0
1 -306 -303 0
1 -306 -346 0
1 306 -221 0
1 -306 347 0
1 306 304 0
1 -306 -348 0
1 306 222 0
1 -347 -231 0
1 347 -306 0
1 -347 303 0
1 347 221 0
1 -347 302 0
1 347 305 0
1 347 -245 0
1 347 -304 0
1 347 222 0
1 -315 349 0
1 -315 231 0
1 315 -255 0
1 -315 -346 0
1 -315 -350 0
1 -315 -305 0
1 315 -304 0
1 315 348 0
1 315 307 0
1 313 -349 0
1 313 315 0
1 313 -346 0
1 -313 351 0
1 313 -350 0
1 313 -257 0
1 -313 305 0
1 -313 -304 0
1 -313 307 0
1 -346 -315 0
1 346 306 0
1 -346 -310 0
1 -346 -348 0
1 -348 -352 0
1 348 309 0
1 -348 -346 0
1 348 321 0
1 348 310 0
1 -348 353 0
1 303 -354 0
1 303 347 0
1 303 -304 0
1 -304 315 0
1 -304 306 0
1 304 -347 0
1 -304 -213 0
1 304 -355 0
1 -309 349 0
1 -309 -251 0
1 -309 231 0
1 -309 310 0
1 309 350 0
1 -309 -226 0
1 -309 307 0
1 310 -231 0
1 -310 -309 0
1 -310 228 0
1 -310 346 0
1 310 351 0
1 310 -252 0
1 -310 350 0
1 -310 -305 0
1 310 -226 0
1 310 348 0
1 310 307 0
1 352 -262 0
1 352 314 0
1 352 312 0
1 352 243 0
1 352 -351 0
1 352 350 0
1 -352 356 0
1 352 -311 0
1 352 -241 0
1 352 -348 0
1 321 312 0
1 321 -346 0
1 321 263 0
1 -321 351 0
1 -321 350 0
1 -321 356 0
1 321 -348 0
1 -350 -352 0
1 350 349 0
1 -350 -315 0
1 -350 317 0
1 -350 -321 0
1 350 -302 0
1 -350 310 0
1 -350 -357 0
1 350 313 0
1 -350 -358 0
1 350 -330 0
1 349 219 0
1 -349 -359 0
1 -349 -309 0
1 349 -315 0
1 349 -317 0
1 -349 310 0
1 -349 -358 0
1 -349 330 0
1 -351 -352 0
1 351 309 0
1 351 -221 0
1 351 313 0
1 351 307 0
1 307 352 0
1 307 -360 0
1 307 -309 0
1 307 -315 0
1 -307 222 0
1 -307 361 0
1 307 -321 0
1 -307 310 0
1 307 -313 0
1 319 349 0
1 319 -314 0
1 -319 243 0
1 319 249 0
1 -319 -317 0
1 319 -311 0
1 319 324 0
1 317 349 0
1 317 312 0
1 -317 -249 0
1 -317 350 0
1 317 -356 0
1 317 -311 0
1 -317 -308 0
1 -317 319 0
1 330 349 0
1 330 -314 0
1 -330 -312 0
1 -330 323 0
1 -330 320 0
1 330 -332 0
1 330 350 0
1 330 -356 0
1 330 -311 0
1 330 322 0
1 330 -324 0
1 -330 -274 0
1 332 -314 0
1 332 312 0
1 332 -320 0
1 332 249 0
1 332 273 0
1 -332 350 0
1 332 356 0
1 -332 311 0
1 -332 -318 0
1 332 -330 0
1 -311 312 0
1 311 -362 0
1 -311 334 0
1 -311 -317 0
1 311 -363 0
1 311 -336 0
1 311 328 0
1 -312 228 0
1 312 -334 0
1 312 -326 0
1 312 -332 0
1 312 317 0
1 312 321 0
1 -312 -311 0
1 -312 -363 0
1 -312 -330 0
1 -312 -319 0
1 356 -352 0
1 356 -314 0
1 356 364 0
1 -356 -361 0
1 -356 -332 0
1 -356 -317 0
1 356 -321 0
1 -356 -363 0
1 356 -358 0
1 356 319 0
1 314 -352 0
1 314 231 0
1 314 365 0
1 -314 332 0
1 314 -317 0
1 -314 356 0
1 314 -366 0
1 314 -319 0
1 -328 254 0
1 328 -312 0
1 -328 -326 0
1 328 320 0
1 -328 322 0
1 -328 311 0
1 -328 -270 0
1 -326 254 0
1 -326 312 0
1 -326 268 0
1 326 323 0
1 -326 361 0
1 326 320 0
1 -326 -246 0
1 -326 -256 0
1 326 311 0
1 -326 328 0
1 -326 -318 0
1 -326 316 0
1 336 -254 0
1 -336 312 0
1 -336 334 0
1 -336 -323 0
1 -336 -256 0
1 336 311 0
1 -336 -281 0
1 336 -366 0
1 -336 -318 0
1 -336 -329 0
1 -336 -367 0
1 -334 254 0
1 -334 312 0
1 334 280 0
1 334 364 0
1 -334 323 0
1 334 -327 0
1 334 322 0
1 -334 329 0
1 -334 367 0
1 318 368 0
1 318 340 0
1 318 333 0
1 318 -334 0
1 -318 -326 0
1 -318 -320 0
1 -318 332 0
1 -318 -308 0
1 318 -369 0
1 318 -335 0
1 318 -336 0
1 318 328 0
1 -320 333 0
1 320 334 0
1 -320 -326 0
1 320 239 0
1 -320 318 0
1 -320 330 0
1 -322 370 0
1 -322 -334 0
1 -322 241 0
1 322 -332 0
1 322 -369 0
1 -322 371 0
1 322 363 0
1 -322 336 0
1 322 -330 0
1 -323 370 0
1 -323 334 0
1 323 -243 0
1 323 332 0
1 -323 -369 0
1 323 363 0
1 323 -336 0
1 323 328 0
1 323 -330 0
1 335 254 0
1 335 -325 0
1 -335 -331 0
1 -335 -333 0
1 -335 320 0
1 335 -372 0
1 335 256 0
1 -335 264 0
1 335 -278 0
1 -335 329 0
1 335 367 0
1 333 325 0
1 333 -276 0
1 -333 320 0
1 333 -372 0
1 -333 -329 0
1 -333 367 0
1 -341 -340 0
1 341 372 0
1 341 -327 0
1 -341 373 0
1 -341 374 0
1 341 290 0
1 -341 371 0
1 341 318 0
1 340 -289 0
1 340 375 0
1 -340 370 0
1 -340 -331 0
1 340 320 0
1 340 -372 0
1 -340 373 0
1 340 374 0
1 -340 264 0
1 -340 341 0
1 -340 -329 0
1 367 334 0
1 -367 -327 0
1 367 335 0
1 367 -336 0
1 367 345 0
1 327 -333 0
1 327 367 0
1 -327 334 0
1 327 344 0
1 327 338 0
1 -327 341 0
1 -327 -335 0
1 -327 336 0
1 -327 345 0
1 -329 376 0
1 -329 340 0
1 -329 333 0
1 -329 334 0
1 329 -372 0
1 -329 377 0
1 329 -369 0
1 -329 -341 0
1 -329 336 0
1 -372 -368 0
1 372 -333 0
1 -372 -334 0
1 372 -249 0
1 372 377 0
1 372 369 0
1 372 -329 0
1 -372 335 0
1 -338 339 0
1 338 375 0
1 -338 -331 0
1 338 259 0
1 338 272 0
1 338 -327 0
1 -338 373 0
1 -338 369 0
1 338 -337 0
1 339 285 0
1 339 378 0
1 -339 368 0
1 -339 259 0
1 -339 -327 0
1 339 -373 0
1 339 338 0
1 -339 374 0
1 -339 337 0
1 339 -367 0
1 344 375 0
1 344 -367 0
1 344 272 0
1 -344 -327 0
1 344 -377 0
1 -344 -374 0
1 344 345 0
1 345 378 0
1 345 -375 0
1 345 327 0
1 -345 344 0
1 345 374 0
1 -375 -339 0
1 -375 340 0
1 -375 344 0
1 375 -341 0
1 375 345 0
1 -374 339 0
1 374 340 0
1 -374 375 0
1 -374 -344 0
1 -374 -253 0
1 -374 -338 0
1 374 -345 0
1 378 339 0
1 -378 344 0
1 378 -373 0
1 -378 338 0
1 378 -345 0
1 373 -339 0
1 -373 -378 0
1 -373 340 0
1 -373 256 0
1 373 344 0
1 373 338 0
1 373 -345 0
1 358 -349 0
1 -358 361 0
1 358 354 0
1 358 -379 0
1 -358 -350 0
1 -358 -328 0
1 358 -353 0
1 358 307 0
1 -361 -326 0
1 361 -354 0
1 -361 351 0
1 -361 -358 0
1 361 355 0
1 361 353 0
1 361 307 0
1 -366 -360 0
1 366 -359 0
1 366 -314 0
1 -366 -364 0
1 366 -354 0
1 366 379 0
1 366 -357 0
1 -366 -356 0
1 366 336 0
1 366 -353 0
1 364 -360 0
1 364 359 0
1 -364 314 0
1 -364 334 0
1 -364 354 0
1 -364 380 0
1 -364 -366 0
1 -364 353 0
1 379 370 0
1 379 362 0
1 379 -364 0
1 379 361 0
1 -379 346 0
1 379 -371 0
1 379 363 0
1 379 -366 0
1 -379 -358 0
1 -353 -370 0
1 353 362 0
1 -353 364 0
1 353 361 0
1 -353 -371 0
1 353 -358 0
1 -354 -364 0
1 -354 303 0
1 354 -366 0
1 354 -358 0
1 354 -355 0
1 -355 361 0
1 355 304 0
1 -355 -354 0
1 355 366 0
1 355 -358 0
1 -363 359 0
1 363 -312 0
1 363 -380 0
1 -363 335 0
1 363 311 0
1 363 -322 0
1 362 -359 0
1 362 314 0
1 362 -333 0
1 -362 323 0
1 -362 379 0
1 362 357 0
1 362 -356 0
1 362 -322 0
1 362 353 0
1 371 359 0
1 371 -370 0
1 371 365 0
1 -371 -381 0
1 -371 323 0
1 371 379 0
1 371 380 0
1 -371 341 0
1 -371 -382 0
1 -371 322 0
1 -371 -353 0
1 -370 -360 0
1 370 340 0
1 370 381 0
1 370 323 0
1 370 -379 0
1 370 357 0
1 370 322 0
1 370 353 0
1 -357 -376 0
1 357 377 0
1 357 350 0
1 -357 363 0
1 -359 -376 0
1 -359 368 0
1 359 -362 0
1 -359 364 0
1 359 377 0
1 -359 369 0
1 359 -357 0
1 -359 371 0
1 359 -366 0
1 -380 -370 0
1 -380 -362 0
1 -380 -364 0
1 380 -371 0
1 380 -363 0
1 -360 370 0
1 -360 362 0
1 -360 -380 0
1 -360 366 0
1 -369 359 0
1 369 -365 0
1 -369 381 0
1 369 -323 0
1 -369 -338 0
1 -369 -322 0
1 369 318 0
1 -369 -329 0
1 -368 339 0
1 -368 -359 0
1 368 -365 0
1 368 -323 0
1 -368 -320 0
1 368 372 0
1 368 369 0
1 -368 -382 0
1 -368 322 0
1 -368 318 0
1 377 -359 0
1 -377 -381 0
1 376 -359 0
1 -376 -365 0
1 376 381 0
1 -376 372 0
1 376 -377 0
1 376 -382 0
1 -376 345 0
1 383 381 0
1 383 369 0
1 383 -371 0
1 -383 311 0
1 -381 376 0
1 -381 -368 0
1 -381 377 0
1 -381 369 0
1 -381 -383 0
1 -382 -376 0
1 382 365 0
1 -382 377 0
1 -382 369 0
1 382 356 0
1 -382 -371 0
1 365 376 0
1 365 368 0
1 -365 314 0
1 365 370 0
1 -365 -369 0
1 -365 371 0
